p cnf 21 183
-1 -15 0
-1 -2 0
-1 -3 0
-1 -4 0
-1 -5 0
-1 -6 0
-1 -7 0
-1 -8 0
-10 -11 0
-10 -12 0
-10 -13 0
-10 -14 0
-10 -17 0
-10 -3 0
-10 -8 0
-10 -9 0
-11 -10 0
-11 -12 0
-11 -13 0
-11 -14 0
-11 -18 0
-11 -4 0
-11 -8 0
-11 -9 0
-12 -10 0
-12 -11 0
-12 -13 0
-12 -14 0
-12 -19 0
-12 -20 0
-12 -5 0
-12 -6 0
-12 -8 0
-12 -9 0
-13 -10 0
-13 -11 0
-13 -12 0
-13 -14 0
-13 -19 0
-13 -20 0
-13 -5 0
-13 -6 0
-13 -8 0
-13 -9 0
-14 -10 0
-14 -11 0
-14 -12 0
-14 -13 0
-14 -21 0
-14 -7 0
-14 -8 0
-14 -9 0
-15 -1 0
-15 -16 0
-15 -17 0
-15 -18 0
-15 -19 0
-15 -20 0
-15 -21 0
-15 -8 0
-16 -15 0
-16 -17 0
-16 -18 0
-16 -19 0
-16 -2 0
-16 -20 0
-16 -21 0
-16 -9 0
-17 -10 0
-17 -15 0
-17 -16 0
-17 -18 0
-17 -19 0
-17 -20 0
-17 -21 0
-17 -3 0
-18 -11 0
-18 -15 0
-18 -16 0
-18 -17 0
-18 -19 0
-18 -20 0
-18 -21 0
-18 -4 0
-19 -12 0
-19 -13 0
-19 -15 0
-19 -16 0
-19 -17 0
-19 -18 0
-19 -20 0
-19 -21 0
-19 -5 0
-19 -6 0
-2 -1 0
-2 -16 0
-2 -3 0
-2 -4 0
-2 -5 0
-2 -6 0
-2 -7 0
-2 -9 0
-20 -12 0
-20 -13 0
-20 -15 0
-20 -16 0
-20 -17 0
-20 -18 0
-20 -19 0
-20 -21 0
-20 -5 0
-20 -6 0
-21 -14 0
-21 -15 0
-21 -16 0
-21 -17 0
-21 -18 0
-21 -19 0
-21 -20 0
-21 -7 0
-3 -1 0
-3 -10 0
-3 -17 0
-3 -2 0
-3 -4 0
-3 -5 0
-3 -6 0
-3 -7 0
-4 -1 0
-4 -11 0
-4 -18 0
-4 -2 0
-4 -3 0
-4 -5 0
-4 -6 0
-4 -7 0
-5 -1 0
-5 -12 0
-5 -13 0
-5 -19 0
-5 -2 0
-5 -20 0
-5 -3 0
-5 -4 0
-5 -6 0
-5 -7 0
-6 -1 0
-6 -12 0
-6 -13 0
-6 -19 0
-6 -2 0
-6 -20 0
-6 -3 0
-6 -4 0
-6 -5 0
-6 -7 0
-7 -1 0
-7 -14 0
-7 -2 0
-7 -21 0
-7 -3 0
-7 -4 0
-7 -5 0
-7 -6 0
-8 -1 0
-8 -10 0
-8 -11 0
-8 -12 0
-8 -13 0
-8 -14 0
-8 -15 0
-8 -9 0
-9 -10 0
-9 -11 0
-9 -12 0
-9 -13 0
-9 -14 0
-9 -16 0
-9 -2 0
-9 -8 0
1 2 3 4 5 6 7 0
15 16 17 18 19 20 21 0
8 9 10 11 12 13 14 0
